NAME : mini-n21-k4
COMMENT : Instância média CVRP para teste rápido >>CRIADA PELOS ALUNOS<<
TYPE : CVRP
DIMENSION : 21
EDGE_WEIGHT_TYPE : EUC_2D
CAPACITY : 40
NODE_COORD_SECTION
 1 50 50
 2 48 52
 3 52 49
 4 49 45
 5 54 53
 6 46 47
 7 51 55
 8 47 50
 9 53 46
 10 45 54
 11 56 51
 12 50 47
 13 55 48
 14 44 49
 15 49 53
 16 52 54
 17 46 51
 18 54 46
 19 48 45
 20 51 48
 21 47 46
DEMAND_SECTION
 1 0
 2 8
 3 7
 4 6
 5 9
 6 5
 7 10
 8 4
 9 12
 10 6
 11 8
 12 7
 13 5
 14 9
 15 6
 16 4
 17 11
 18 3
 19 8
 20 10
 21 7
DEPOT_SECTION
 1
 -1
EOF
